(set-info :category "industrial")
(set-info :status sat)
(declare-fun x00 () (_ BitVec 8))
(declare-fun x01 () (_ BitVec 8))
(declare-fun x02 () (_ BitVec 8))
(declare-fun x03 () (_ BitVec 8))
(declare-fun x04 () (_ BitVec 8))
(declare-fun x05 () (_ BitVec 8))
(declare-fun x06 () (_ BitVec 8))
(declare-fun x07 () (_ BitVec 8))
(declare-fun x08 () (_ BitVec 8))
(declare-fun x10 () (_ BitVec 8))
(declare-fun x11 () (_ BitVec 8))
(declare-fun x12 () (_ BitVec 8))
(declare-fun x13 () (_ BitVec 8))
(declare-fun x14 () (_ BitVec 8))
(declare-fun x16 () (_ BitVec 8))
(declare-fun x17 () (_ BitVec 8))
(declare-fun x20 () (_ BitVec 8))
(declare-fun x21 () (_ BitVec 8))
(declare-fun x23 () (_ BitVec 8))
(declare-fun x24 () (_ BitVec 8))
(declare-fun x25 () (_ BitVec 8))
(declare-fun x26 () (_ BitVec 8))
(declare-fun x28 () (_ BitVec 8))
(declare-fun x30 () (_ BitVec 8))
(declare-fun x31 () (_ BitVec 8))
(declare-fun x32 () (_ BitVec 8))
(declare-fun x33 () (_ BitVec 8))
(declare-fun x34 () (_ BitVec 8))
(declare-fun x35 () (_ BitVec 8))
(declare-fun x36 () (_ BitVec 8))
(declare-fun x37 () (_ BitVec 8))
(declare-fun x40 () (_ BitVec 8))
(declare-fun x41 () (_ BitVec 8))
(declare-fun x43 () (_ BitVec 8))
(declare-fun x45 () (_ BitVec 8))
(declare-fun x46 () (_ BitVec 8))
(declare-fun x47 () (_ BitVec 8))
(declare-fun x48 () (_ BitVec 8))
(declare-fun x52 () (_ BitVec 8))
(declare-fun x53 () (_ BitVec 8))
(declare-fun x54 () (_ BitVec 8))
(declare-fun x57 () (_ BitVec 8))
(declare-fun x58 () (_ BitVec 8))
(declare-fun x60 () (_ BitVec 8))
(declare-fun x61 () (_ BitVec 8))
(declare-fun x62 () (_ BitVec 8))
(declare-fun x65 () (_ BitVec 8))
(declare-fun x66 () (_ BitVec 8))
(declare-fun x68 () (_ BitVec 8))
(declare-fun x72 () (_ BitVec 8))
(declare-fun x73 () (_ BitVec 8))
(declare-fun x74 () (_ BitVec 8))
(declare-fun x75 () (_ BitVec 8))
(declare-fun x76 () (_ BitVec 8))
(declare-fun x77 () (_ BitVec 8))
(declare-fun x78 () (_ BitVec 8))
(declare-fun x81 () (_ BitVec 8))
(declare-fun x82 () (_ BitVec 8))
(declare-fun x83 () (_ BitVec 8))
(declare-fun x84 () (_ BitVec 8))
(declare-fun x85 () (_ BitVec 8))
(declare-fun x86 () (_ BitVec 8))
(declare-fun x87 () (_ BitVec 8))
(declare-fun x88 () (_ BitVec 8))
(assert (bvult x00 (_ bv9 8)))
(assert (bvult x01 (_ bv9 8)))
(assert (bvult x02 (_ bv9 8)))
(assert (bvult x03 (_ bv9 8)))
(assert (bvult x04 (_ bv9 8)))
(assert (bvult x05 (_ bv9 8)))
(assert (bvult x06 (_ bv9 8)))
(assert (bvult x07 (_ bv9 8)))
(assert (bvult x08 (_ bv9 8)))
(assert (bvult x10 (_ bv9 8)))
(assert (bvult x11 (_ bv9 8)))
(assert (bvult x12 (_ bv9 8)))
(assert (bvult x13 (_ bv9 8)))
(assert (bvult x14 (_ bv9 8)))
(assert (bvult x16 (_ bv9 8)))
(assert (bvult x17 (_ bv9 8)))
(assert (bvult x20 (_ bv9 8)))
(assert (bvult x21 (_ bv9 8)))
(assert (bvult x23 (_ bv9 8)))
(assert (bvult x24 (_ bv9 8)))
(assert (bvult x25 (_ bv9 8)))
(assert (bvult x26 (_ bv9 8)))
(assert (bvult x28 (_ bv9 8)))
(assert (bvult x30 (_ bv9 8)))
(assert (bvult x31 (_ bv9 8)))
(assert (bvult x32 (_ bv9 8)))
(assert (bvult x33 (_ bv9 8)))
(assert (bvult x34 (_ bv9 8)))
(assert (bvult x35 (_ bv9 8)))
(assert (bvult x36 (_ bv9 8)))
(assert (bvult x37 (_ bv9 8)))
(assert (bvult x40 (_ bv9 8)))
(assert (bvult x41 (_ bv9 8)))
(assert (bvult x43 (_ bv9 8)))
(assert (bvult x45 (_ bv9 8)))
(assert (bvult x46 (_ bv9 8)))
(assert (bvult x47 (_ bv9 8)))
(assert (bvult x48 (_ bv9 8)))
(assert (bvult x52 (_ bv9 8)))
(assert (bvult x53 (_ bv9 8)))
(assert (bvult x54 (_ bv9 8)))
(assert (bvult x57 (_ bv9 8)))
(assert (bvult x58 (_ bv9 8)))
(assert (bvult x60 (_ bv9 8)))
(assert (bvult x61 (_ bv9 8)))
(assert (bvult x62 (_ bv9 8)))
(assert (bvult x65 (_ bv9 8)))
(assert (bvult x66 (_ bv9 8)))
(assert (bvult x68 (_ bv9 8)))
(assert (bvult x72 (_ bv9 8)))
(assert (bvult x73 (_ bv9 8)))
(assert (bvult x74 (_ bv9 8)))
(assert (bvult x75 (_ bv9 8)))
(assert (bvult x76 (_ bv9 8)))
(assert (bvult x77 (_ bv9 8)))
(assert (bvult x78 (_ bv9 8)))
(assert (bvult x81 (_ bv9 8)))
(assert (bvult x82 (_ bv9 8)))
(assert (bvult x83 (_ bv9 8)))
(assert (bvult x84 (_ bv9 8)))
(assert (bvult x85 (_ bv9 8)))
(assert (bvult x86 (_ bv9 8)))
(assert (bvult x87 (_ bv9 8)))
(assert (bvult x88 (_ bv9 8)))
(assert (not (= x00 x01)))
(assert (not (= x00 x02)))
(assert (not (= x00 x03)))
(assert (not (= x00 x04)))
(assert (not (= x00 x05)))
(assert (not (= x00 x06)))
(assert (not (= x00 x07)))
(assert (not (= x00 x08)))
(assert (not (= x01 x02)))
(assert (not (= x01 x03)))
(assert (not (= x01 x04)))
(assert (not (= x01 x05)))
(assert (not (= x01 x06)))
(assert (not (= x01 x07)))
(assert (not (= x01 x08)))
(assert (not (= x02 x03)))
(assert (not (= x02 x04)))
(assert (not (= x02 x05)))
(assert (not (= x02 x06)))
(assert (not (= x02 x07)))
(assert (not (= x02 x08)))
(assert (not (= x03 x04)))
(assert (not (= x03 x05)))
(assert (not (= x03 x06)))
(assert (not (= x03 x07)))
(assert (not (= x03 x08)))
(assert (not (= x04 x05)))
(assert (not (= x04 x06)))
(assert (not (= x04 x07)))
(assert (not (= x04 x08)))
(assert (not (= x05 x06)))
(assert (not (= x05 x07)))
(assert (not (= x05 x08)))
(assert (not (= x06 x07)))
(assert (not (= x06 x08)))
(assert (not (= x07 x08)))
(assert (not (= x10 x11)))
(assert (not (= x10 x12)))
(assert (not (= x10 x13)))
(assert (not (= x10 x14)))
(assert (not (= x10 (_ bv1 8))))
(assert (not (= x10 x16)))
(assert (not (= x10 x17)))
(assert (not (= x10 (_ bv2 8))))
(assert (not (= x11 x12)))
(assert (not (= x11 x13)))
(assert (not (= x11 x14)))
(assert (not (= x11 (_ bv1 8))))
(assert (not (= x11 x16)))
(assert (not (= x11 x17)))
(assert (not (= x11 (_ bv2 8))))
(assert (not (= x12 x13)))
(assert (not (= x12 x14)))
(assert (not (= x12 (_ bv1 8))))
(assert (not (= x12 x16)))
(assert (not (= x12 x17)))
(assert (not (= x12 (_ bv2 8))))
(assert (not (= x13 x14)))
(assert (not (= x13 (_ bv1 8))))
(assert (not (= x13 x16)))
(assert (not (= x13 x17)))
(assert (not (= x13 (_ bv2 8))))
(assert (not (= x14 (_ bv1 8))))
(assert (not (= x14 x16)))
(assert (not (= x14 x17)))
(assert (not (= x14 (_ bv2 8))))
(assert (not (= (_ bv1 8) x16)))
(assert (not (= (_ bv1 8) x17)))
(assert (not (= (_ bv1 8) (_ bv2 8))))
(assert (not (= x16 x17)))
(assert (not (= x16 (_ bv2 8))))
(assert (not (= x17 (_ bv2 8))))
(assert (not (= x20 x21)))
(assert (not (= x20 (_ bv3 8))))
(assert (not (= x20 x23)))
(assert (not (= x20 x24)))
(assert (not (= x20 x25)))
(assert (not (= x20 x26)))
(assert (not (= x20 (_ bv4 8))))
(assert (not (= x20 x28)))
(assert (not (= x21 (_ bv3 8))))
(assert (not (= x21 x23)))
(assert (not (= x21 x24)))
(assert (not (= x21 x25)))
(assert (not (= x21 x26)))
(assert (not (= x21 (_ bv4 8))))
(assert (not (= x21 x28)))
(assert (not (= (_ bv3 8) x23)))
(assert (not (= (_ bv3 8) x24)))
(assert (not (= (_ bv3 8) x25)))
(assert (not (= (_ bv3 8) x26)))
(assert (not (= (_ bv3 8) (_ bv4 8))))
(assert (not (= (_ bv3 8) x28)))
(assert (not (= x23 x24)))
(assert (not (= x23 x25)))
(assert (not (= x23 x26)))
(assert (not (= x23 (_ bv4 8))))
(assert (not (= x23 x28)))
(assert (not (= x24 x25)))
(assert (not (= x24 x26)))
(assert (not (= x24 (_ bv4 8))))
(assert (not (= x24 x28)))
(assert (not (= x25 x26)))
(assert (not (= x25 (_ bv4 8))))
(assert (not (= x25 x28)))
(assert (not (= x26 (_ bv4 8))))
(assert (not (= x26 x28)))
(assert (not (= (_ bv4 8) x28)))
(assert (not (= x30 x31)))
(assert (not (= x30 x32)))
(assert (not (= x30 x33)))
(assert (not (= x30 x34)))
(assert (not (= x30 x35)))
(assert (not (= x30 x36)))
(assert (not (= x30 x37)))
(assert (not (= x30 (_ bv5 8))))
(assert (not (= x31 x32)))
(assert (not (= x31 x33)))
(assert (not (= x31 x34)))
(assert (not (= x31 x35)))
(assert (not (= x31 x36)))
(assert (not (= x31 x37)))
(assert (not (= x31 (_ bv5 8))))
(assert (not (= x32 x33)))
(assert (not (= x32 x34)))
(assert (not (= x32 x35)))
(assert (not (= x32 x36)))
(assert (not (= x32 x37)))
(assert (not (= x32 (_ bv5 8))))
(assert (not (= x33 x34)))
(assert (not (= x33 x35)))
(assert (not (= x33 x36)))
(assert (not (= x33 x37)))
(assert (not (= x33 (_ bv5 8))))
(assert (not (= x34 x35)))
(assert (not (= x34 x36)))
(assert (not (= x34 x37)))
(assert (not (= x34 (_ bv5 8))))
(assert (not (= x35 x36)))
(assert (not (= x35 x37)))
(assert (not (= x35 (_ bv5 8))))
(assert (not (= x36 x37)))
(assert (not (= x36 (_ bv5 8))))
(assert (not (= x37 (_ bv5 8))))
(assert (not (= x40 x41)))
(assert (not (= x40 (_ bv6 8))))
(assert (not (= x40 x43)))
(assert (not (= x40 (_ bv4 8))))
(assert (not (= x40 x45)))
(assert (not (= x40 x46)))
(assert (not (= x40 x47)))
(assert (not (= x40 x48)))
(assert (not (= x41 (_ bv6 8))))
(assert (not (= x41 x43)))
(assert (not (= x41 (_ bv4 8))))
(assert (not (= x41 x45)))
(assert (not (= x41 x46)))
(assert (not (= x41 x47)))
(assert (not (= x41 x48)))
(assert (not (= (_ bv6 8) x43)))
(assert (not (= (_ bv6 8) (_ bv4 8))))
(assert (not (= (_ bv6 8) x45)))
(assert (not (= (_ bv6 8) x46)))
(assert (not (= (_ bv6 8) x47)))
(assert (not (= (_ bv6 8) x48)))
(assert (not (= x43 (_ bv4 8))))
(assert (not (= x43 x45)))
(assert (not (= x43 x46)))
(assert (not (= x43 x47)))
(assert (not (= x43 x48)))
(assert (not (= (_ bv4 8) x45)))
(assert (not (= (_ bv4 8) x46)))
(assert (not (= (_ bv4 8) x47)))
(assert (not (= (_ bv4 8) x48)))
(assert (not (= x45 x46)))
(assert (not (= x45 x47)))
(assert (not (= x45 x48)))
(assert (not (= x46 x47)))
(assert (not (= x46 x48)))
(assert (not (= x47 x48)))
(assert (not (= (_ bv2 8) (_ bv5 8))))
(assert (not (= (_ bv2 8) x52)))
(assert (not (= (_ bv2 8) x53)))
(assert (not (= (_ bv2 8) x54)))
(assert (not (= (_ bv2 8) (_ bv7 8))))
(assert (not (= (_ bv2 8) (_ bv1 8))))
(assert (not (= (_ bv2 8) x57)))
(assert (not (= (_ bv2 8) x58)))
(assert (not (= (_ bv5 8) x52)))
(assert (not (= (_ bv5 8) x53)))
(assert (not (= (_ bv5 8) x54)))
(assert (not (= (_ bv5 8) (_ bv7 8))))
(assert (not (= (_ bv5 8) (_ bv1 8))))
(assert (not (= (_ bv5 8) x57)))
(assert (not (= (_ bv5 8) x58)))
(assert (not (= x52 x53)))
(assert (not (= x52 x54)))
(assert (not (= x52 (_ bv7 8))))
(assert (not (= x52 (_ bv1 8))))
(assert (not (= x52 x57)))
(assert (not (= x52 x58)))
(assert (not (= x53 x54)))
(assert (not (= x53 (_ bv7 8))))
(assert (not (= x53 (_ bv1 8))))
(assert (not (= x53 x57)))
(assert (not (= x53 x58)))
(assert (not (= x54 (_ bv7 8))))
(assert (not (= x54 (_ bv1 8))))
(assert (not (= x54 x57)))
(assert (not (= x54 x58)))
(assert (not (= (_ bv7 8) (_ bv1 8))))
(assert (not (= (_ bv7 8) x57)))
(assert (not (= (_ bv7 8) x58)))
(assert (not (= (_ bv1 8) x57)))
(assert (not (= (_ bv1 8) x58)))
(assert (not (= x57 x58)))
(assert (not (= x60 x61)))
(assert (not (= x60 x62)))
(assert (not (= x60 (_ bv4 8))))
(assert (not (= x60 (_ bv3 8))))
(assert (not (= x60 x65)))
(assert (not (= x60 x66)))
(assert (not (= x60 (_ bv8 8))))
(assert (not (= x60 x68)))
(assert (not (= x61 x62)))
(assert (not (= x61 (_ bv4 8))))
(assert (not (= x61 (_ bv3 8))))
(assert (not (= x61 x65)))
(assert (not (= x61 x66)))
(assert (not (= x61 (_ bv8 8))))
(assert (not (= x61 x68)))
(assert (not (= x62 (_ bv4 8))))
(assert (not (= x62 (_ bv3 8))))
(assert (not (= x62 x65)))
(assert (not (= x62 x66)))
(assert (not (= x62 (_ bv8 8))))
(assert (not (= x62 x68)))
(assert (not (= (_ bv4 8) (_ bv3 8))))
(assert (not (= (_ bv4 8) x65)))
(assert (not (= (_ bv4 8) x66)))
(assert (not (= (_ bv4 8) (_ bv8 8))))
(assert (not (= (_ bv4 8) x68)))
(assert (not (= (_ bv3 8) x65)))
(assert (not (= (_ bv3 8) x66)))
(assert (not (= (_ bv3 8) (_ bv8 8))))
(assert (not (= (_ bv3 8) x68)))
(assert (not (= x65 x66)))
(assert (not (= x65 (_ bv8 8))))
(assert (not (= x65 x68)))
(assert (not (= x66 (_ bv8 8))))
(assert (not (= x66 x68)))
(assert (not (= (_ bv8 8) x68)))
(assert (not (= (_ bv1 8) (_ bv7 8))))
(assert (not (= (_ bv1 8) x72)))
(assert (not (= (_ bv1 8) x73)))
(assert (not (= (_ bv1 8) x74)))
(assert (not (= (_ bv1 8) x75)))
(assert (not (= (_ bv1 8) x76)))
(assert (not (= (_ bv1 8) x77)))
(assert (not (= (_ bv1 8) x78)))
(assert (not (= (_ bv7 8) x72)))
(assert (not (= (_ bv7 8) x73)))
(assert (not (= (_ bv7 8) x74)))
(assert (not (= (_ bv7 8) x75)))
(assert (not (= (_ bv7 8) x76)))
(assert (not (= (_ bv7 8) x77)))
(assert (not (= (_ bv7 8) x78)))
(assert (not (= x72 x73)))
(assert (not (= x72 x74)))
(assert (not (= x72 x75)))
(assert (not (= x72 x76)))
(assert (not (= x72 x77)))
(assert (not (= x72 x78)))
(assert (not (= x73 x74)))
(assert (not (= x73 x75)))
(assert (not (= x73 x76)))
(assert (not (= x73 x77)))
(assert (not (= x73 x78)))
(assert (not (= x74 x75)))
(assert (not (= x74 x76)))
(assert (not (= x74 x77)))
(assert (not (= x74 x78)))
(assert (not (= x75 x76)))
(assert (not (= x75 x77)))
(assert (not (= x75 x78)))
(assert (not (= x76 x77)))
(assert (not (= x76 x78)))
(assert (not (= x77 x78)))
(assert (not (= (_ bv6 8) x81)))
(assert (not (= (_ bv6 8) x82)))
(assert (not (= (_ bv6 8) x83)))
(assert (not (= (_ bv6 8) x84)))
(assert (not (= (_ bv6 8) x85)))
(assert (not (= (_ bv6 8) x86)))
(assert (not (= (_ bv6 8) x87)))
(assert (not (= (_ bv6 8) x88)))
(assert (not (= x81 x82)))
(assert (not (= x81 x83)))
(assert (not (= x81 x84)))
(assert (not (= x81 x85)))
(assert (not (= x81 x86)))
(assert (not (= x81 x87)))
(assert (not (= x81 x88)))
(assert (not (= x82 x83)))
(assert (not (= x82 x84)))
(assert (not (= x82 x85)))
(assert (not (= x82 x86)))
(assert (not (= x82 x87)))
(assert (not (= x82 x88)))
(assert (not (= x83 x84)))
(assert (not (= x83 x85)))
(assert (not (= x83 x86)))
(assert (not (= x83 x87)))
(assert (not (= x83 x88)))
(assert (not (= x84 x85)))
(assert (not (= x84 x86)))
(assert (not (= x84 x87)))
(assert (not (= x84 x88)))
(assert (not (= x85 x86)))
(assert (not (= x85 x87)))
(assert (not (= x85 x88)))
(assert (not (= x86 x87)))
(assert (not (= x86 x88)))
(assert (not (= x87 x88)))
(assert (not (= x00 x10)))
(assert (not (= x00 x20)))
(assert (not (= x00 x30)))
(assert (not (= x00 x40)))
(assert (not (= x00 (_ bv2 8))))
(assert (not (= x00 x60)))
(assert (not (= x00 (_ bv1 8))))
(assert (not (= x00 (_ bv6 8))))
(assert (not (= x10 x20)))
(assert (not (= x10 x30)))
(assert (not (= x10 x40)))
(assert (not (= x10 (_ bv2 8))))
(assert (not (= x10 x60)))
(assert (not (= x10 (_ bv1 8))))
(assert (not (= x10 (_ bv6 8))))
(assert (not (= x20 x30)))
(assert (not (= x20 x40)))
(assert (not (= x20 (_ bv2 8))))
(assert (not (= x20 x60)))
(assert (not (= x20 (_ bv1 8))))
(assert (not (= x20 (_ bv6 8))))
(assert (not (= x30 x40)))
(assert (not (= x30 (_ bv2 8))))
(assert (not (= x30 x60)))
(assert (not (= x30 (_ bv1 8))))
(assert (not (= x30 (_ bv6 8))))
(assert (not (= x40 (_ bv2 8))))
(assert (not (= x40 x60)))
(assert (not (= x40 (_ bv1 8))))
(assert (not (= x40 (_ bv6 8))))
(assert (not (= (_ bv2 8) x60)))
(assert (not (= (_ bv2 8) (_ bv1 8))))
(assert (not (= (_ bv2 8) (_ bv6 8))))
(assert (not (= x60 (_ bv1 8))))
(assert (not (= x60 (_ bv6 8))))
(assert (not (= (_ bv1 8) (_ bv6 8))))
(assert (not (= x01 x11)))
(assert (not (= x01 x21)))
(assert (not (= x01 x31)))
(assert (not (= x01 x41)))
(assert (not (= x01 (_ bv5 8))))
(assert (not (= x01 x61)))
(assert (not (= x01 (_ bv7 8))))
(assert (not (= x01 x81)))
(assert (not (= x11 x21)))
(assert (not (= x11 x31)))
(assert (not (= x11 x41)))
(assert (not (= x11 (_ bv5 8))))
(assert (not (= x11 x61)))
(assert (not (= x11 (_ bv7 8))))
(assert (not (= x11 x81)))
(assert (not (= x21 x31)))
(assert (not (= x21 x41)))
(assert (not (= x21 (_ bv5 8))))
(assert (not (= x21 x61)))
(assert (not (= x21 (_ bv7 8))))
(assert (not (= x21 x81)))
(assert (not (= x31 x41)))
(assert (not (= x31 (_ bv5 8))))
(assert (not (= x31 x61)))
(assert (not (= x31 (_ bv7 8))))
(assert (not (= x31 x81)))
(assert (not (= x41 (_ bv5 8))))
(assert (not (= x41 x61)))
(assert (not (= x41 (_ bv7 8))))
(assert (not (= x41 x81)))
(assert (not (= (_ bv5 8) x61)))
(assert (not (= (_ bv5 8) (_ bv7 8))))
(assert (not (= (_ bv5 8) x81)))
(assert (not (= x61 (_ bv7 8))))
(assert (not (= x61 x81)))
(assert (not (= (_ bv7 8) x81)))
(assert (not (= x02 x12)))
(assert (not (= x02 (_ bv3 8))))
(assert (not (= x02 x32)))
(assert (not (= x02 (_ bv6 8))))
(assert (not (= x02 x52)))
(assert (not (= x02 x62)))
(assert (not (= x02 x72)))
(assert (not (= x02 x82)))
(assert (not (= x12 (_ bv3 8))))
(assert (not (= x12 x32)))
(assert (not (= x12 (_ bv6 8))))
(assert (not (= x12 x52)))
(assert (not (= x12 x62)))
(assert (not (= x12 x72)))
(assert (not (= x12 x82)))
(assert (not (= (_ bv3 8) x32)))
(assert (not (= (_ bv3 8) (_ bv6 8))))
(assert (not (= (_ bv3 8) x52)))
(assert (not (= (_ bv3 8) x62)))
(assert (not (= (_ bv3 8) x72)))
(assert (not (= (_ bv3 8) x82)))
(assert (not (= x32 (_ bv6 8))))
(assert (not (= x32 x52)))
(assert (not (= x32 x62)))
(assert (not (= x32 x72)))
(assert (not (= x32 x82)))
(assert (not (= (_ bv6 8) x52)))
(assert (not (= (_ bv6 8) x62)))
(assert (not (= (_ bv6 8) x72)))
(assert (not (= (_ bv6 8) x82)))
(assert (not (= x52 x62)))
(assert (not (= x52 x72)))
(assert (not (= x52 x82)))
(assert (not (= x62 x72)))
(assert (not (= x62 x82)))
(assert (not (= x72 x82)))
(assert (not (= x03 x13)))
(assert (not (= x03 x23)))
(assert (not (= x03 x33)))
(assert (not (= x03 x43)))
(assert (not (= x03 x53)))
(assert (not (= x03 (_ bv4 8))))
(assert (not (= x03 x73)))
(assert (not (= x03 x83)))
(assert (not (= x13 x23)))
(assert (not (= x13 x33)))
(assert (not (= x13 x43)))
(assert (not (= x13 x53)))
(assert (not (= x13 (_ bv4 8))))
(assert (not (= x13 x73)))
(assert (not (= x13 x83)))
(assert (not (= x23 x33)))
(assert (not (= x23 x43)))
(assert (not (= x23 x53)))
(assert (not (= x23 (_ bv4 8))))
(assert (not (= x23 x73)))
(assert (not (= x23 x83)))
(assert (not (= x33 x43)))
(assert (not (= x33 x53)))
(assert (not (= x33 (_ bv4 8))))
(assert (not (= x33 x73)))
(assert (not (= x33 x83)))
(assert (not (= x43 x53)))
(assert (not (= x43 (_ bv4 8))))
(assert (not (= x43 x73)))
(assert (not (= x43 x83)))
(assert (not (= x53 (_ bv4 8))))
(assert (not (= x53 x73)))
(assert (not (= x53 x83)))
(assert (not (= (_ bv4 8) x73)))
(assert (not (= (_ bv4 8) x83)))
(assert (not (= x73 x83)))
(assert (not (= x04 x14)))
(assert (not (= x04 x24)))
(assert (not (= x04 x34)))
(assert (not (= x04 (_ bv4 8))))
(assert (not (= x04 x54)))
(assert (not (= x04 (_ bv3 8))))
(assert (not (= x04 x74)))
(assert (not (= x04 x84)))
(assert (not (= x14 x24)))
(assert (not (= x14 x34)))
(assert (not (= x14 (_ bv4 8))))
(assert (not (= x14 x54)))
(assert (not (= x14 (_ bv3 8))))
(assert (not (= x14 x74)))
(assert (not (= x14 x84)))
(assert (not (= x24 x34)))
(assert (not (= x24 (_ bv4 8))))
(assert (not (= x24 x54)))
(assert (not (= x24 (_ bv3 8))))
(assert (not (= x24 x74)))
(assert (not (= x24 x84)))
(assert (not (= x34 (_ bv4 8))))
(assert (not (= x34 x54)))
(assert (not (= x34 (_ bv3 8))))
(assert (not (= x34 x74)))
(assert (not (= x34 x84)))
(assert (not (= (_ bv4 8) x54)))
(assert (not (= (_ bv4 8) (_ bv3 8))))
(assert (not (= (_ bv4 8) x74)))
(assert (not (= (_ bv4 8) x84)))
(assert (not (= x54 (_ bv3 8))))
(assert (not (= x54 x74)))
(assert (not (= x54 x84)))
(assert (not (= (_ bv3 8) x74)))
(assert (not (= (_ bv3 8) x84)))
(assert (not (= x74 x84)))
(assert (not (= x05 (_ bv1 8))))
(assert (not (= x05 x25)))
(assert (not (= x05 x35)))
(assert (not (= x05 x45)))
(assert (not (= x05 (_ bv7 8))))
(assert (not (= x05 x65)))
(assert (not (= x05 x75)))
(assert (not (= x05 x85)))
(assert (not (= (_ bv1 8) x25)))
(assert (not (= (_ bv1 8) x35)))
(assert (not (= (_ bv1 8) x45)))
(assert (not (= (_ bv1 8) (_ bv7 8))))
(assert (not (= (_ bv1 8) x65)))
(assert (not (= (_ bv1 8) x75)))
(assert (not (= (_ bv1 8) x85)))
(assert (not (= x25 x35)))
(assert (not (= x25 x45)))
(assert (not (= x25 (_ bv7 8))))
(assert (not (= x25 x65)))
(assert (not (= x25 x75)))
(assert (not (= x25 x85)))
(assert (not (= x35 x45)))
(assert (not (= x35 (_ bv7 8))))
(assert (not (= x35 x65)))
(assert (not (= x35 x75)))
(assert (not (= x35 x85)))
(assert (not (= x45 (_ bv7 8))))
(assert (not (= x45 x65)))
(assert (not (= x45 x75)))
(assert (not (= x45 x85)))
(assert (not (= (_ bv7 8) x65)))
(assert (not (= (_ bv7 8) x75)))
(assert (not (= (_ bv7 8) x85)))
(assert (not (= x65 x75)))
(assert (not (= x65 x85)))
(assert (not (= x75 x85)))
(assert (not (= x06 x16)))
(assert (not (= x06 x26)))
(assert (not (= x06 x36)))
(assert (not (= x06 x46)))
(assert (not (= x06 (_ bv1 8))))
(assert (not (= x06 x66)))
(assert (not (= x06 x76)))
(assert (not (= x06 x86)))
(assert (not (= x16 x26)))
(assert (not (= x16 x36)))
(assert (not (= x16 x46)))
(assert (not (= x16 (_ bv1 8))))
(assert (not (= x16 x66)))
(assert (not (= x16 x76)))
(assert (not (= x16 x86)))
(assert (not (= x26 x36)))
(assert (not (= x26 x46)))
(assert (not (= x26 (_ bv1 8))))
(assert (not (= x26 x66)))
(assert (not (= x26 x76)))
(assert (not (= x26 x86)))
(assert (not (= x36 x46)))
(assert (not (= x36 (_ bv1 8))))
(assert (not (= x36 x66)))
(assert (not (= x36 x76)))
(assert (not (= x36 x86)))
(assert (not (= x46 (_ bv1 8))))
(assert (not (= x46 x66)))
(assert (not (= x46 x76)))
(assert (not (= x46 x86)))
(assert (not (= (_ bv1 8) x66)))
(assert (not (= (_ bv1 8) x76)))
(assert (not (= (_ bv1 8) x86)))
(assert (not (= x66 x76)))
(assert (not (= x66 x86)))
(assert (not (= x76 x86)))
(assert (not (= x07 x17)))
(assert (not (= x07 (_ bv4 8))))
(assert (not (= x07 x37)))
(assert (not (= x07 x47)))
(assert (not (= x07 x57)))
(assert (not (= x07 (_ bv8 8))))
(assert (not (= x07 x77)))
(assert (not (= x07 x87)))
(assert (not (= x17 (_ bv4 8))))
(assert (not (= x17 x37)))
(assert (not (= x17 x47)))
(assert (not (= x17 x57)))
(assert (not (= x17 (_ bv8 8))))
(assert (not (= x17 x77)))
(assert (not (= x17 x87)))
(assert (not (= (_ bv4 8) x37)))
(assert (not (= (_ bv4 8) x47)))
(assert (not (= (_ bv4 8) x57)))
(assert (not (= (_ bv4 8) (_ bv8 8))))
(assert (not (= (_ bv4 8) x77)))
(assert (not (= (_ bv4 8) x87)))
(assert (not (= x37 x47)))
(assert (not (= x37 x57)))
(assert (not (= x37 (_ bv8 8))))
(assert (not (= x37 x77)))
(assert (not (= x37 x87)))
(assert (not (= x47 x57)))
(assert (not (= x47 (_ bv8 8))))
(assert (not (= x47 x77)))
(assert (not (= x47 x87)))
(assert (not (= x57 (_ bv8 8))))
(assert (not (= x57 x77)))
(assert (not (= x57 x87)))
(assert (not (= (_ bv8 8) x77)))
(assert (not (= (_ bv8 8) x87)))
(assert (not (= x77 x87)))
(assert (not (= x08 (_ bv2 8))))
(assert (not (= x08 x28)))
(assert (not (= x08 (_ bv5 8))))
(assert (not (= x08 x48)))
(assert (not (= x08 x58)))
(assert (not (= x08 x68)))
(assert (not (= x08 x78)))
(assert (not (= x08 x88)))
(assert (not (= (_ bv2 8) x28)))
(assert (not (= (_ bv2 8) (_ bv5 8))))
(assert (not (= (_ bv2 8) x48)))
(assert (not (= (_ bv2 8) x58)))
(assert (not (= (_ bv2 8) x68)))
(assert (not (= (_ bv2 8) x78)))
(assert (not (= (_ bv2 8) x88)))
(assert (not (= x28 (_ bv5 8))))
(assert (not (= x28 x48)))
(assert (not (= x28 x58)))
(assert (not (= x28 x68)))
(assert (not (= x28 x78)))
(assert (not (= x28 x88)))
(assert (not (= (_ bv5 8) x48)))
(assert (not (= (_ bv5 8) x58)))
(assert (not (= (_ bv5 8) x68)))
(assert (not (= (_ bv5 8) x78)))
(assert (not (= (_ bv5 8) x88)))
(assert (not (= x48 x58)))
(assert (not (= x48 x68)))
(assert (not (= x48 x78)))
(assert (not (= x48 x88)))
(assert (not (= x58 x68)))
(assert (not (= x58 x78)))
(assert (not (= x58 x88)))
(assert (not (= x68 x78)))
(assert (not (= x68 x88)))
(assert (not (= x78 x88)))
(assert (not (= x00 x01)))
(assert (not (= x00 x02)))
(assert (not (= x00 x10)))
(assert (not (= x00 x11)))
(assert (not (= x00 x12)))
(assert (not (= x00 x20)))
(assert (not (= x00 x21)))
(assert (not (= x00 (_ bv3 8))))
(assert (not (= x01 x02)))
(assert (not (= x01 x10)))
(assert (not (= x01 x11)))
(assert (not (= x01 x12)))
(assert (not (= x01 x20)))
(assert (not (= x01 x21)))
(assert (not (= x01 (_ bv3 8))))
(assert (not (= x02 x10)))
(assert (not (= x02 x11)))
(assert (not (= x02 x12)))
(assert (not (= x02 x20)))
(assert (not (= x02 x21)))
(assert (not (= x02 (_ bv3 8))))
(assert (not (= x10 x11)))
(assert (not (= x10 x12)))
(assert (not (= x10 x20)))
(assert (not (= x10 x21)))
(assert (not (= x10 (_ bv3 8))))
(assert (not (= x11 x12)))
(assert (not (= x11 x20)))
(assert (not (= x11 x21)))
(assert (not (= x11 (_ bv3 8))))
(assert (not (= x12 x20)))
(assert (not (= x12 x21)))
(assert (not (= x12 (_ bv3 8))))
(assert (not (= x20 x21)))
(assert (not (= x20 (_ bv3 8))))
(assert (not (= x21 (_ bv3 8))))
(assert (not (= x03 x04)))
(assert (not (= x03 x05)))
(assert (not (= x03 x13)))
(assert (not (= x03 x14)))
(assert (not (= x03 (_ bv1 8))))
(assert (not (= x03 x23)))
(assert (not (= x03 x24)))
(assert (not (= x03 x25)))
(assert (not (= x04 x05)))
(assert (not (= x04 x13)))
(assert (not (= x04 x14)))
(assert (not (= x04 (_ bv1 8))))
(assert (not (= x04 x23)))
(assert (not (= x04 x24)))
(assert (not (= x04 x25)))
(assert (not (= x05 x13)))
(assert (not (= x05 x14)))
(assert (not (= x05 (_ bv1 8))))
(assert (not (= x05 x23)))
(assert (not (= x05 x24)))
(assert (not (= x05 x25)))
(assert (not (= x13 x14)))
(assert (not (= x13 (_ bv1 8))))
(assert (not (= x13 x23)))
(assert (not (= x13 x24)))
(assert (not (= x13 x25)))
(assert (not (= x14 (_ bv1 8))))
(assert (not (= x14 x23)))
(assert (not (= x14 x24)))
(assert (not (= x14 x25)))
(assert (not (= (_ bv1 8) x23)))
(assert (not (= (_ bv1 8) x24)))
(assert (not (= (_ bv1 8) x25)))
(assert (not (= x23 x24)))
(assert (not (= x23 x25)))
(assert (not (= x24 x25)))
(assert (not (= x06 x07)))
(assert (not (= x06 x08)))
(assert (not (= x06 x16)))
(assert (not (= x06 x17)))
(assert (not (= x06 (_ bv2 8))))
(assert (not (= x06 x26)))
(assert (not (= x06 (_ bv4 8))))
(assert (not (= x06 x28)))
(assert (not (= x07 x08)))
(assert (not (= x07 x16)))
(assert (not (= x07 x17)))
(assert (not (= x07 (_ bv2 8))))
(assert (not (= x07 x26)))
(assert (not (= x07 (_ bv4 8))))
(assert (not (= x07 x28)))
(assert (not (= x08 x16)))
(assert (not (= x08 x17)))
(assert (not (= x08 (_ bv2 8))))
(assert (not (= x08 x26)))
(assert (not (= x08 (_ bv4 8))))
(assert (not (= x08 x28)))
(assert (not (= x16 x17)))
(assert (not (= x16 (_ bv2 8))))
(assert (not (= x16 x26)))
(assert (not (= x16 (_ bv4 8))))
(assert (not (= x16 x28)))
(assert (not (= x17 (_ bv2 8))))
(assert (not (= x17 x26)))
(assert (not (= x17 (_ bv4 8))))
(assert (not (= x17 x28)))
(assert (not (= (_ bv2 8) x26)))
(assert (not (= (_ bv2 8) (_ bv4 8))))
(assert (not (= (_ bv2 8) x28)))
(assert (not (= x26 (_ bv4 8))))
(assert (not (= x26 x28)))
(assert (not (= (_ bv4 8) x28)))
(assert (not (= x30 x31)))
(assert (not (= x30 x32)))
(assert (not (= x30 x40)))
(assert (not (= x30 x41)))
(assert (not (= x30 (_ bv6 8))))
(assert (not (= x30 (_ bv2 8))))
(assert (not (= x30 (_ bv5 8))))
(assert (not (= x30 x52)))
(assert (not (= x31 x32)))
(assert (not (= x31 x40)))
(assert (not (= x31 x41)))
(assert (not (= x31 (_ bv6 8))))
(assert (not (= x31 (_ bv2 8))))
(assert (not (= x31 (_ bv5 8))))
(assert (not (= x31 x52)))
(assert (not (= x32 x40)))
(assert (not (= x32 x41)))
(assert (not (= x32 (_ bv6 8))))
(assert (not (= x32 (_ bv2 8))))
(assert (not (= x32 (_ bv5 8))))
(assert (not (= x32 x52)))
(assert (not (= x40 x41)))
(assert (not (= x40 (_ bv6 8))))
(assert (not (= x40 (_ bv2 8))))
(assert (not (= x40 (_ bv5 8))))
(assert (not (= x40 x52)))
(assert (not (= x41 (_ bv6 8))))
(assert (not (= x41 (_ bv2 8))))
(assert (not (= x41 (_ bv5 8))))
(assert (not (= x41 x52)))
(assert (not (= (_ bv6 8) (_ bv2 8))))
(assert (not (= (_ bv6 8) (_ bv5 8))))
(assert (not (= (_ bv6 8) x52)))
(assert (not (= (_ bv2 8) (_ bv5 8))))
(assert (not (= (_ bv2 8) x52)))
(assert (not (= (_ bv5 8) x52)))
(assert (not (= x33 x34)))
(assert (not (= x33 x35)))
(assert (not (= x33 x43)))
(assert (not (= x33 (_ bv4 8))))
(assert (not (= x33 x45)))
(assert (not (= x33 x53)))
(assert (not (= x33 x54)))
(assert (not (= x33 (_ bv7 8))))
(assert (not (= x34 x35)))
(assert (not (= x34 x43)))
(assert (not (= x34 (_ bv4 8))))
(assert (not (= x34 x45)))
(assert (not (= x34 x53)))
(assert (not (= x34 x54)))
(assert (not (= x34 (_ bv7 8))))
(assert (not (= x35 x43)))
(assert (not (= x35 (_ bv4 8))))
(assert (not (= x35 x45)))
(assert (not (= x35 x53)))
(assert (not (= x35 x54)))
(assert (not (= x35 (_ bv7 8))))
(assert (not (= x43 (_ bv4 8))))
(assert (not (= x43 x45)))
(assert (not (= x43 x53)))
(assert (not (= x43 x54)))
(assert (not (= x43 (_ bv7 8))))
(assert (not (= (_ bv4 8) x45)))
(assert (not (= (_ bv4 8) x53)))
(assert (not (= (_ bv4 8) x54)))
(assert (not (= (_ bv4 8) (_ bv7 8))))
(assert (not (= x45 x53)))
(assert (not (= x45 x54)))
(assert (not (= x45 (_ bv7 8))))
(assert (not (= x53 x54)))
(assert (not (= x53 (_ bv7 8))))
(assert (not (= x54 (_ bv7 8))))
(assert (not (= x36 x37)))
(assert (not (= x36 (_ bv5 8))))
(assert (not (= x36 x46)))
(assert (not (= x36 x47)))
(assert (not (= x36 x48)))
(assert (not (= x36 (_ bv1 8))))
(assert (not (= x36 x57)))
(assert (not (= x36 x58)))
(assert (not (= x37 (_ bv5 8))))
(assert (not (= x37 x46)))
(assert (not (= x37 x47)))
(assert (not (= x37 x48)))
(assert (not (= x37 (_ bv1 8))))
(assert (not (= x37 x57)))
(assert (not (= x37 x58)))
(assert (not (= (_ bv5 8) x46)))
(assert (not (= (_ bv5 8) x47)))
(assert (not (= (_ bv5 8) x48)))
(assert (not (= (_ bv5 8) (_ bv1 8))))
(assert (not (= (_ bv5 8) x57)))
(assert (not (= (_ bv5 8) x58)))
(assert (not (= x46 x47)))
(assert (not (= x46 x48)))
(assert (not (= x46 (_ bv1 8))))
(assert (not (= x46 x57)))
(assert (not (= x46 x58)))
(assert (not (= x47 x48)))
(assert (not (= x47 (_ bv1 8))))
(assert (not (= x47 x57)))
(assert (not (= x47 x58)))
(assert (not (= x48 (_ bv1 8))))
(assert (not (= x48 x57)))
(assert (not (= x48 x58)))
(assert (not (= (_ bv1 8) x57)))
(assert (not (= (_ bv1 8) x58)))
(assert (not (= x57 x58)))
(assert (not (= x60 x61)))
(assert (not (= x60 x62)))
(assert (not (= x60 (_ bv1 8))))
(assert (not (= x60 (_ bv7 8))))
(assert (not (= x60 x72)))
(assert (not (= x60 (_ bv6 8))))
(assert (not (= x60 x81)))
(assert (not (= x60 x82)))
(assert (not (= x61 x62)))
(assert (not (= x61 (_ bv1 8))))
(assert (not (= x61 (_ bv7 8))))
(assert (not (= x61 x72)))
(assert (not (= x61 (_ bv6 8))))
(assert (not (= x61 x81)))
(assert (not (= x61 x82)))
(assert (not (= x62 (_ bv1 8))))
(assert (not (= x62 (_ bv7 8))))
(assert (not (= x62 x72)))
(assert (not (= x62 (_ bv6 8))))
(assert (not (= x62 x81)))
(assert (not (= x62 x82)))
(assert (not (= (_ bv1 8) (_ bv7 8))))
(assert (not (= (_ bv1 8) x72)))
(assert (not (= (_ bv1 8) (_ bv6 8))))
(assert (not (= (_ bv1 8) x81)))
(assert (not (= (_ bv1 8) x82)))
(assert (not (= (_ bv7 8) x72)))
(assert (not (= (_ bv7 8) (_ bv6 8))))
(assert (not (= (_ bv7 8) x81)))
(assert (not (= (_ bv7 8) x82)))
(assert (not (= x72 (_ bv6 8))))
(assert (not (= x72 x81)))
(assert (not (= x72 x82)))
(assert (not (= (_ bv6 8) x81)))
(assert (not (= (_ bv6 8) x82)))
(assert (not (= x81 x82)))
(assert (not (= (_ bv4 8) (_ bv3 8))))
(assert (not (= (_ bv4 8) x65)))
(assert (not (= (_ bv4 8) x73)))
(assert (not (= (_ bv4 8) x74)))
(assert (not (= (_ bv4 8) x75)))
(assert (not (= (_ bv4 8) x83)))
(assert (not (= (_ bv4 8) x84)))
(assert (not (= (_ bv4 8) x85)))
(assert (not (= (_ bv3 8) x65)))
(assert (not (= (_ bv3 8) x73)))
(assert (not (= (_ bv3 8) x74)))
(assert (not (= (_ bv3 8) x75)))
(assert (not (= (_ bv3 8) x83)))
(assert (not (= (_ bv3 8) x84)))
(assert (not (= (_ bv3 8) x85)))
(assert (not (= x65 x73)))
(assert (not (= x65 x74)))
(assert (not (= x65 x75)))
(assert (not (= x65 x83)))
(assert (not (= x65 x84)))
(assert (not (= x65 x85)))
(assert (not (= x73 x74)))
(assert (not (= x73 x75)))
(assert (not (= x73 x83)))
(assert (not (= x73 x84)))
(assert (not (= x73 x85)))
(assert (not (= x74 x75)))
(assert (not (= x74 x83)))
(assert (not (= x74 x84)))
(assert (not (= x74 x85)))
(assert (not (= x75 x83)))
(assert (not (= x75 x84)))
(assert (not (= x75 x85)))
(assert (not (= x83 x84)))
(assert (not (= x83 x85)))
(assert (not (= x84 x85)))
(assert (not (= x66 (_ bv8 8))))
(assert (not (= x66 x68)))
(assert (not (= x66 x76)))
(assert (not (= x66 x77)))
(assert (not (= x66 x78)))
(assert (not (= x66 x86)))
(assert (not (= x66 x87)))
(assert (not (= x66 x88)))
(assert (not (= (_ bv8 8) x68)))
(assert (not (= (_ bv8 8) x76)))
(assert (not (= (_ bv8 8) x77)))
(assert (not (= (_ bv8 8) x78)))
(assert (not (= (_ bv8 8) x86)))
(assert (not (= (_ bv8 8) x87)))
(assert (not (= (_ bv8 8) x88)))
(assert (not (= x68 x76)))
(assert (not (= x68 x77)))
(assert (not (= x68 x78)))
(assert (not (= x68 x86)))
(assert (not (= x68 x87)))
(assert (not (= x68 x88)))
(assert (not (= x76 x77)))
(assert (not (= x76 x78)))
(assert (not (= x76 x86)))
(assert (not (= x76 x87)))
(assert (not (= x76 x88)))
(assert (not (= x77 x78)))
(assert (not (= x77 x86)))
(assert (not (= x77 x87)))
(assert (not (= x77 x88)))
(assert (not (= x78 x86)))
(assert (not (= x78 x87)))
(assert (not (= x78 x88)))
(assert (not (= x86 x87)))
(assert (not (= x86 x88)))
(assert (not (= x87 x88)))
(check-sat)
(exit)
